(set-info :smt-lib-version 2.6)
(set-logic QF_NIA)
(set-info :source |
Generated by: Cristina Borralleras, Daniel Larraz, Albert Oliveras, Enric Rodriguez-Carbonell, Albert Rubio
Generated on: 2017-04-27
Generator: VeryMax
Application: Termination proving
Target solver: barcelogic
|)
(set-info :license "https://creativecommons.org/licenses/by/4.0/")
(set-info :category "industrial")
(set-info :status unknown)
(declare-fun Nl2__const_10^01 () Int)
(declare-fun Nl2i_13^01 () Int)
(declare-fun Nl2__const_10^02 () Int)
(declare-fun Nl2i_13^02 () Int)
(declare-fun Nl2__const_10^03 () Int)
(declare-fun Nl2i_13^03 () Int)
(declare-fun lam0n0 () Int)
(declare-fun lam0n1 () Int)
(declare-fun lam0n2 () Int)
(declare-fun lam0n3 () Int)
(declare-fun lam0n6 () Int)
(declare-fun lam0n7 () Int)
(declare-fun lam0n8 () Int)
(declare-fun lam0n4 () Int)
(declare-fun lam0n5 () Int)
(declare-fun Nl2CT1 () Int)
(declare-fun Nl2CT2 () Int)
(declare-fun Nl2CT3 () Int)
(declare-fun lam1n0 () Int)
(declare-fun lam1n1 () Int)
(declare-fun lam1n2 () Int)
(declare-fun lam1n3 () Int)
(declare-fun lam1n6 () Int)
(declare-fun lam1n7 () Int)
(declare-fun lam1n8 () Int)
(declare-fun lam1n4 () Int)
(declare-fun lam1n5 () Int)
(declare-fun lam2n0 () Int)
(declare-fun lam2n1 () Int)
(declare-fun lam2n2 () Int)
(declare-fun lam2n3 () Int)
(declare-fun lam2n6 () Int)
(declare-fun lam2n7 () Int)
(declare-fun lam2n8 () Int)
(declare-fun lam2n4 () Int)
(declare-fun lam2n5 () Int)
(declare-fun lam3n0 () Int)
(declare-fun lam3n1 () Int)
(declare-fun lam3n2 () Int)
(declare-fun lam3n3 () Int)
(declare-fun lam3n6 () Int)
(declare-fun lam3n7 () Int)
(declare-fun lam3n8 () Int)
(declare-fun lam3n4 () Int)
(declare-fun lam3n5 () Int)
(declare-fun lam4n0 () Int)
(declare-fun lam4n1 () Int)
(declare-fun lam4n2 () Int)
(declare-fun lam5n0 () Int)
(declare-fun lam5n1 () Int)
(declare-fun lam5n2 () Int)
(declare-fun lam6n0 () Int)
(declare-fun lam6n1 () Int)
(declare-fun lam6n2 () Int)
(declare-fun __const_10^0 () Int)
(declare-fun i_13^0 () Int)
(declare-fun undef3 () Int)
(declare-fun lam10n0 () Int)
(declare-fun lam10n1 () Int)
(declare-fun lam10n2 () Int)
(declare-fun lam10n3 () Int)
(declare-fun lam10n6 () Int)
(declare-fun lam10n7 () Int)
(declare-fun lam10n8 () Int)
(declare-fun lam10n4 () Int)
(declare-fun lam10n5 () Int)
(declare-fun RFN1_CT () Int)
(declare-fun RFN1_i_13^0 () Int)
(declare-fun RFN1___const_10^0 () Int)
(declare-fun lam8n0 () Int)
(declare-fun lam8n1 () Int)
(declare-fun lam8n2 () Int)
(declare-fun lam8n3 () Int)
(declare-fun lam8n6 () Int)
(declare-fun lam8n7 () Int)
(declare-fun lam8n8 () Int)
(declare-fun lam8n4 () Int)
(declare-fun lam8n5 () Int)
(declare-fun lam9n0 () Int)
(declare-fun lam9n1 () Int)
(declare-fun lam9n2 () Int)
(declare-fun lam9n3 () Int)
(declare-fun lam9n6 () Int)
(declare-fun lam9n7 () Int)
(declare-fun lam9n8 () Int)
(declare-fun lam9n4 () Int)
(declare-fun lam9n5 () Int)
(declare-fun lam7n0 () Int)
(declare-fun lam7n1 () Int)
(declare-fun lam7n2 () Int)
(declare-fun lam7n3 () Int)
(declare-fun lam7n6 () Int)
(declare-fun lam7n7 () Int)
(declare-fun lam7n8 () Int)
(declare-fun lam7n4 () Int)
(declare-fun lam7n5 () Int)
(assert ( and ( <= ( - 1 ) Nl2__const_10^01 ) ( <= Nl2__const_10^01 1 ) ( <= ( - 1 ) Nl2i_13^01 ) ( <= Nl2i_13^01 1 ) ( <= ( - 1 ) Nl2__const_10^02 ) ( <= Nl2__const_10^02 1 ) ( <= ( - 1 ) Nl2i_13^02 ) ( <= Nl2i_13^02 1 ) ( <= ( - 1 ) Nl2__const_10^03 ) ( <= Nl2__const_10^03 1 ) ( <= ( - 1 ) Nl2i_13^03 ) ( <= Nl2i_13^03 1 ) ))
(assert ( or ( and ( >= lam0n0 0 ) ( >= lam0n1 0 ) ( >= lam0n2 0 ) ( >= lam0n3 0 ) ( >= lam0n6 0 ) ( >= lam0n7 0 ) ( >= lam0n8 0 ) ( > ( + ( * 1 lam0n1 ) ( * 1 lam0n2 ) ( * 1 lam0n3 ) ( * 1 lam0n4 ) ( * ( - 1 ) lam0n5 ) ( * Nl2CT1 lam0n6 ) ( * Nl2CT2 lam0n7 ) ( * Nl2CT3 lam0n8 ) ( - 1 ) ) 0 ) ( = ( + ( * ( - 1 ) lam0n1 ) ( * ( - 1 ) lam0n2 ) ( * ( - 1 ) lam0n3 ) ( * Nl2__const_10^01 lam0n6 ) ( * Nl2__const_10^02 lam0n7 ) ( * Nl2__const_10^03 lam0n8 ) ) 0 ) ( = ( + ( * 1 lam0n0 ) ( * 1 lam0n2 ) ( * 1 lam0n5 ) ( * Nl2i_13^01 lam0n6 ) ( * Nl2i_13^02 lam0n7 ) ( * Nl2i_13^03 lam0n8 ) ) 0 ) ( = ( + ( * 1 lam0n4 ) ( * ( - 1 ) lam0n5 ) ) 0 ) ( = ( + ( * 1 lam0n3 ) ( * ( - 1 ) lam0n4 ) ) 0 ) ) ( and ( >= lam1n0 0 ) ( >= lam1n1 0 ) ( >= lam1n2 0 ) ( >= lam1n3 0 ) ( >= lam1n6 0 ) ( >= lam1n7 0 ) ( >= lam1n8 0 ) ( > ( + ( * 1 lam1n1 ) ( * 1 lam1n2 ) ( * 1 lam1n3 ) ( * 1 lam1n4 ) ( * ( - 1 ) lam1n5 ) ( * Nl2CT1 lam1n6 ) ( * Nl2CT2 lam1n7 ) ( * Nl2CT3 lam1n8 ) ( - 1 ( + Nl2CT1 ( * Nl2i_13^01 0 ) ) ) ) 0 ) ( = ( + ( * ( - 1 ) lam1n1 ) ( * ( - 1 ) lam1n2 ) ( * ( - 1 ) lam1n3 ) ( * Nl2__const_10^01 lam1n6 ) ( * Nl2__const_10^02 lam1n7 ) ( * Nl2__const_10^03 lam1n8 ) ( - ( + 0 Nl2__const_10^01 ) ) ) 0 ) ( = ( + ( * 1 lam1n0 ) ( * 1 lam1n2 ) ( * 1 lam1n5 ) ( * Nl2i_13^01 lam1n6 ) ( * Nl2i_13^02 lam1n7 ) ( * Nl2i_13^03 lam1n8 ) ) 0 ) ( = ( + ( * 1 lam1n4 ) ( * ( - 1 ) lam1n5 ) ( - ( + 0 ( * Nl2i_13^01 1 ) ) ) ) 0 ) ( = ( + ( * 1 lam1n3 ) ( * ( - 1 ) lam1n4 ) ) 0 ) ) ))
(assert ( or ( and ( >= lam0n0 0 ) ( >= lam0n1 0 ) ( >= lam0n2 0 ) ( >= lam0n3 0 ) ( >= lam0n6 0 ) ( >= lam0n7 0 ) ( >= lam0n8 0 ) ( > ( + ( * 1 lam0n1 ) ( * 1 lam0n2 ) ( * 1 lam0n3 ) ( * 1 lam0n4 ) ( * ( - 1 ) lam0n5 ) ( * Nl2CT1 lam0n6 ) ( * Nl2CT2 lam0n7 ) ( * Nl2CT3 lam0n8 ) ( - 1 ) ) 0 ) ( = ( + ( * ( - 1 ) lam0n1 ) ( * ( - 1 ) lam0n2 ) ( * ( - 1 ) lam0n3 ) ( * Nl2__const_10^01 lam0n6 ) ( * Nl2__const_10^02 lam0n7 ) ( * Nl2__const_10^03 lam0n8 ) ) 0 ) ( = ( + ( * 1 lam0n0 ) ( * 1 lam0n2 ) ( * 1 lam0n5 ) ( * Nl2i_13^01 lam0n6 ) ( * Nl2i_13^02 lam0n7 ) ( * Nl2i_13^03 lam0n8 ) ) 0 ) ( = ( + ( * 1 lam0n4 ) ( * ( - 1 ) lam0n5 ) ) 0 ) ( = ( + ( * 1 lam0n3 ) ( * ( - 1 ) lam0n4 ) ) 0 ) ) ( and ( >= lam2n0 0 ) ( >= lam2n1 0 ) ( >= lam2n2 0 ) ( >= lam2n3 0 ) ( >= lam2n6 0 ) ( >= lam2n7 0 ) ( >= lam2n8 0 ) ( > ( + ( * 1 lam2n1 ) ( * 1 lam2n2 ) ( * 1 lam2n3 ) ( * 1 lam2n4 ) ( * ( - 1 ) lam2n5 ) ( * Nl2CT1 lam2n6 ) ( * Nl2CT2 lam2n7 ) ( * Nl2CT3 lam2n8 ) ( - 1 ( + Nl2CT2 ( * Nl2i_13^02 0 ) ) ) ) 0 ) ( = ( + ( * ( - 1 ) lam2n1 ) ( * ( - 1 ) lam2n2 ) ( * ( - 1 ) lam2n3 ) ( * Nl2__const_10^01 lam2n6 ) ( * Nl2__const_10^02 lam2n7 ) ( * Nl2__const_10^03 lam2n8 ) ( - ( + 0 Nl2__const_10^02 ) ) ) 0 ) ( = ( + ( * 1 lam2n0 ) ( * 1 lam2n2 ) ( * 1 lam2n5 ) ( * Nl2i_13^01 lam2n6 ) ( * Nl2i_13^02 lam2n7 ) ( * Nl2i_13^03 lam2n8 ) ) 0 ) ( = ( + ( * 1 lam2n4 ) ( * ( - 1 ) lam2n5 ) ( - ( + 0 ( * Nl2i_13^02 1 ) ) ) ) 0 ) ( = ( + ( * 1 lam2n3 ) ( * ( - 1 ) lam2n4 ) ) 0 ) ) ))
(assert ( or ( and ( >= lam0n0 0 ) ( >= lam0n1 0 ) ( >= lam0n2 0 ) ( >= lam0n3 0 ) ( >= lam0n6 0 ) ( >= lam0n7 0 ) ( >= lam0n8 0 ) ( > ( + ( * 1 lam0n1 ) ( * 1 lam0n2 ) ( * 1 lam0n3 ) ( * 1 lam0n4 ) ( * ( - 1 ) lam0n5 ) ( * Nl2CT1 lam0n6 ) ( * Nl2CT2 lam0n7 ) ( * Nl2CT3 lam0n8 ) ( - 1 ) ) 0 ) ( = ( + ( * ( - 1 ) lam0n1 ) ( * ( - 1 ) lam0n2 ) ( * ( - 1 ) lam0n3 ) ( * Nl2__const_10^01 lam0n6 ) ( * Nl2__const_10^02 lam0n7 ) ( * Nl2__const_10^03 lam0n8 ) ) 0 ) ( = ( + ( * 1 lam0n0 ) ( * 1 lam0n2 ) ( * 1 lam0n5 ) ( * Nl2i_13^01 lam0n6 ) ( * Nl2i_13^02 lam0n7 ) ( * Nl2i_13^03 lam0n8 ) ) 0 ) ( = ( + ( * 1 lam0n4 ) ( * ( - 1 ) lam0n5 ) ) 0 ) ( = ( + ( * 1 lam0n3 ) ( * ( - 1 ) lam0n4 ) ) 0 ) ) ( and ( >= lam3n0 0 ) ( >= lam3n1 0 ) ( >= lam3n2 0 ) ( >= lam3n3 0 ) ( >= lam3n6 0 ) ( >= lam3n7 0 ) ( >= lam3n8 0 ) ( > ( + ( * 1 lam3n1 ) ( * 1 lam3n2 ) ( * 1 lam3n3 ) ( * 1 lam3n4 ) ( * ( - 1 ) lam3n5 ) ( * Nl2CT1 lam3n6 ) ( * Nl2CT2 lam3n7 ) ( * Nl2CT3 lam3n8 ) ( - 1 ( + Nl2CT3 ( * Nl2i_13^03 0 ) ) ) ) 0 ) ( = ( + ( * ( - 1 ) lam3n1 ) ( * ( - 1 ) lam3n2 ) ( * ( - 1 ) lam3n3 ) ( * Nl2__const_10^01 lam3n6 ) ( * Nl2__const_10^02 lam3n7 ) ( * Nl2__const_10^03 lam3n8 ) ( - ( + 0 Nl2__const_10^03 ) ) ) 0 ) ( = ( + ( * 1 lam3n0 ) ( * 1 lam3n2 ) ( * 1 lam3n5 ) ( * Nl2i_13^01 lam3n6 ) ( * Nl2i_13^02 lam3n7 ) ( * Nl2i_13^03 lam3n8 ) ) 0 ) ( = ( + ( * 1 lam3n4 ) ( * ( - 1 ) lam3n5 ) ( - ( + 0 ( * Nl2i_13^03 1 ) ) ) ) 0 ) ( = ( + ( * 1 lam3n3 ) ( * ( - 1 ) lam3n4 ) ) 0 ) ) ))
(assert ( and ( not ( <= __const_10^0 0 ) ) ( = ( + i_13^0 ( * ( - 1 ) undef3 ) ) 0 ) ( = undef3 0 ) ( <= ( + Nl2CT1 ( * ( + 0 Nl2__const_10^01 ) __const_10^0 ) ( * ( + 0 Nl2i_13^01 ) i_13^0 ) ) 0 ) ( <= ( + Nl2CT2 ( * ( + 0 Nl2__const_10^02 ) __const_10^0 ) ( * ( + 0 Nl2i_13^02 ) i_13^0 ) ) 0 ) ( <= ( + Nl2CT3 ( * ( + 0 Nl2__const_10^03 ) __const_10^0 ) ( * ( + 0 Nl2i_13^03 ) i_13^0 ) ) 0 ) ( <= ( + 1 ( * ( - 1 ) __const_10^0 ) ) 0 ) ( <= ( + 1 ( * ( - 1 ) __const_10^0 ) ) 0 ) ( <= i_13^0 0 ) ))
(assert ( or ( and ( and ( >= lam10n0 0 ) ( >= lam10n1 0 ) ( >= lam10n2 0 ) ( >= lam10n3 0 ) ( >= lam10n6 0 ) ( >= lam10n7 0 ) ( >= lam10n8 0 ) ( > ( + ( * 1 lam10n0 ) ( * 1 lam10n1 ) ( * 50001 lam10n2 ) ( * 50001 lam10n3 ) ( * 1 lam10n4 ) ( * ( - 1 ) lam10n5 ) ( * Nl2CT1 lam10n6 ) ( * Nl2CT2 lam10n7 ) ( * Nl2CT3 lam10n8 ) ( - 1 ( - ( + RFN1_CT ( * RFN1_i_13^0 0 ) ) RFN1_CT ) ) ) 0 ) ( = ( + ( * ( - 1 ) lam10n0 ) ( * ( - 1 ) lam10n1 ) ( * ( - 1 ) lam10n2 ) ( * Nl2__const_10^01 lam10n6 ) ( * Nl2__const_10^02 lam10n7 ) ( * Nl2__const_10^03 lam10n8 ) ( - ( - ( + 0 RFN1___const_10^0 ) RFN1___const_10^0 ) ) ) 0 ) ( = ( + ( * 1 lam10n2 ) ( * 1 lam10n3 ) ( * 1 lam10n5 ) ( * Nl2i_13^01 lam10n6 ) ( * Nl2i_13^02 lam10n7 ) ( * Nl2i_13^03 lam10n8 ) ( - ( - RFN1_i_13^0 ) ) ) 0 ) ( = ( + ( * 1 lam10n4 ) ( * ( - 1 ) lam10n5 ) ( - ( + 0 ( * RFN1_i_13^0 1 ) ) ) ) 0 ) ( = ( + ( * 1 lam10n1 ) ( * ( - 1 ) lam10n4 ) ) 0 ) ) ( and ( and ( >= lam8n0 0 ) ( >= lam8n1 0 ) ( >= lam8n2 0 ) ( >= lam8n3 0 ) ( >= lam8n6 0 ) ( >= lam8n7 0 ) ( >= lam8n8 0 ) ( > ( + ( * 1 lam8n0 ) ( * 1 lam8n1 ) ( * 50001 lam8n2 ) ( * 50001 lam8n3 ) ( * 1 lam8n4 ) ( * ( - 1 ) lam8n5 ) ( * Nl2CT1 lam8n6 ) ( * Nl2CT2 lam8n7 ) ( * Nl2CT3 lam8n8 ) ( - 1 ( - RFN1_CT ) ) ) 0 ) ( = ( + ( * ( - 1 ) lam8n0 ) ( * ( - 1 ) lam8n1 ) ( * ( - 1 ) lam8n2 ) ( * Nl2__const_10^01 lam8n6 ) ( * Nl2__const_10^02 lam8n7 ) ( * Nl2__const_10^03 lam8n8 ) ( - ( - RFN1___const_10^0 ) ) ) 0 ) ( = ( + ( * 1 lam8n2 ) ( * 1 lam8n3 ) ( * 1 lam8n5 ) ( * Nl2i_13^01 lam8n6 ) ( * Nl2i_13^02 lam8n7 ) ( * Nl2i_13^03 lam8n8 ) ( - ( - RFN1_i_13^0 ) ) ) 0 ) ( = ( + ( * 1 lam8n4 ) ( * ( - 1 ) lam8n5 ) ) 0 ) ( = ( + ( * 1 lam8n1 ) ( * ( - 1 ) lam8n4 ) ) 0 ) ) ( and ( >= lam9n0 0 ) ( >= lam9n1 0 ) ( >= lam9n2 0 ) ( >= lam9n3 0 ) ( >= lam9n6 0 ) ( >= lam9n7 0 ) ( >= lam9n8 0 ) ( > ( + ( * 1 lam9n0 ) ( * 1 lam9n1 ) ( * 50001 lam9n2 ) ( * 50001 lam9n3 ) ( * 1 lam9n4 ) ( * ( - 1 ) lam9n5 ) ( * Nl2CT1 lam9n6 ) ( * Nl2CT2 lam9n7 ) ( * Nl2CT3 lam9n8 ) ( - 1 ( + ( - ( + RFN1_CT ( * RFN1_i_13^0 0 ) ) RFN1_CT ) 1 ) ) ) 0 ) ( = ( + ( * ( - 1 ) lam9n0 ) ( * ( - 1 ) lam9n1 ) ( * ( - 1 ) lam9n2 ) ( * Nl2__const_10^01 lam9n6 ) ( * Nl2__const_10^02 lam9n7 ) ( * Nl2__const_10^03 lam9n8 ) ( - ( - ( + 0 RFN1___const_10^0 ) RFN1___const_10^0 ) ) ) 0 ) ( = ( + ( * 1 lam9n2 ) ( * 1 lam9n3 ) ( * 1 lam9n5 ) ( * Nl2i_13^01 lam9n6 ) ( * Nl2i_13^02 lam9n7 ) ( * Nl2i_13^03 lam9n8 ) ( - ( - RFN1_i_13^0 ) ) ) 0 ) ( = ( + ( * 1 lam9n4 ) ( * ( - 1 ) lam9n5 ) ( - ( + 0 ( * RFN1_i_13^0 1 ) ) ) ) 0 ) ( = ( + ( * 1 lam9n1 ) ( * ( - 1 ) lam9n4 ) ) 0 ) ) ) ) ( and ( >= lam7n0 0 ) ( >= lam7n1 0 ) ( >= lam7n2 0 ) ( >= lam7n3 0 ) ( >= lam7n6 0 ) ( >= lam7n7 0 ) ( >= lam7n8 0 ) ( > ( + ( * 1 lam7n0 ) ( * 1 lam7n1 ) ( * 50001 lam7n2 ) ( * 50001 lam7n3 ) ( * 1 lam7n4 ) ( * ( - 1 ) lam7n5 ) ( * Nl2CT1 lam7n6 ) ( * Nl2CT2 lam7n7 ) ( * Nl2CT3 lam7n8 ) ( - 1 ) ) 0 ) ( = ( + ( * ( - 1 ) lam7n0 ) ( * ( - 1 ) lam7n1 ) ( * ( - 1 ) lam7n2 ) ( * Nl2__const_10^01 lam7n6 ) ( * Nl2__const_10^02 lam7n7 ) ( * Nl2__const_10^03 lam7n8 ) ) 0 ) ( = ( + ( * 1 lam7n2 ) ( * 1 lam7n3 ) ( * 1 lam7n5 ) ( * Nl2i_13^01 lam7n6 ) ( * Nl2i_13^02 lam7n7 ) ( * Nl2i_13^03 lam7n8 ) ) 0 ) ( = ( + ( * 1 lam7n4 ) ( * ( - 1 ) lam7n5 ) ) 0 ) ( = ( + ( * 1 lam7n1 ) ( * ( - 1 ) lam7n4 ) ) 0 ) ) ))
(check-sat)
(exit)
